results_rootrelaxation/bin018_080_021.srr.sol
solution status: optimal solution found
objective value:                     23.2834836663996
_var2903_                           0.187896183596221 	(obj:2)
_var3074_                           0.121973350018238 	(obj:1)
_var3128_                            0.15040835868564 	(obj:1)
_var3135_                          0.0446692145425907 	(obj:1)
_var3198_                           0.064049781047713 	(obj:3)
_var3221_                           0.235367672853628 	(obj:0)
_var3267_                          0.0590817506977726 	(obj:0)
_var3297_                            0.15273550719429 	(obj:1)
_var3302_                           0.198589326219003 	(obj:1)
_var3355_                         0.00253232192208259 	(obj:1)
_var3356_                           0.146079873257154 	(obj:1)
_var3363_                           0.132578837396029 	(obj:2)
_var3387_                           0.260351721582781 	(obj:2)
_var3393_                          0.0771801575745403 	(obj:2)
_var3395_                          0.0590692078932719 	(obj:1)
_var3416_                           0.162070329375677 	(obj:1)
_var3424_                          0.0658038903761918 	(obj:1)
_var3429_                           0.265534222590132 	(obj:1)
_var3430_                           0.386161506198222 	(obj:3)
_var3444_                           0.130292123423861 	(obj:2)
_var3450_                            0.20532822730284 	(obj:1)
_var3479_                          0.0575898223942602 	(obj:2)
_var3483_                         0.00581031922266159 	(obj:1)
_var3498_                           0.127275440828415 	(obj:2)
_var3510_                            0.15040835868564 	(obj:2)
_var3511_                            0.50840242976848 	(obj:1)
_var3513_                           0.240839317521273 	(obj:1)
_var3523_                          0.0441844269870001 	(obj:0)
_var3524_                           0.369645608268829 	(obj:1)
_var3534_                           0.211055398654712 	(obj:1)
_var3536_                           0.234077848178049 	(obj:1)
_var3537_                           0.180456071940905 	(obj:2)
_var3538_                           0.253253385656372 	(obj:3)
_var3540_                           0.239856609503664 	(obj:2)
_var3547_                           0.399694589615442 	(obj:1)
_var3548_                          0.0514130247721429 	(obj:1)
_var3549_                         0.00246360015980177 	(obj:3)
_var3555_                          0.0444564451364258 	(obj:3)
_var3557_                           0.117811354939403 	(obj:1)
_var3565_                           0.299553171063926 	(obj:1)
_var3568_                         0.00538219400619839 	(obj:1)
_var3570_                           0.418953764623588 	(obj:0)
_var3578_                          0.0550575004721776 	(obj:1)
_var3580_                           0.553307195417733 	(obj:2)
_var3584_                            0.11468018629492 	(obj:2)
_var3592_                          0.0661222880250026 	(obj:1)
_var3593_                          0.0468173424524256 	(obj:3)
_var3594_                           0.245841134344624 	(obj:1)
_var3605_                         0.00554690777242256 	(obj:2)
_var3606_                          0.0118335899042081 	(obj:2)
_var3607_                         0.00347373536106882 	(obj:1)
_var3609_                           0.183431139796038 	(obj:1)
_var3611_                          0.0497836152779595 	(obj:1)
_var3614_                           0.120770904369728 	(obj:2)
_var3624_                          0.0550575004721781 	(obj:0)
_var3629_                           0.210176749459767 	(obj:1)
_var3631_                           0.118449619214138 	(obj:1)
_var3633_                          0.0981717336939354 	(obj:1)
_var3634_                              0.044184426987 	(obj:3)
_var3635_                         0.00229520767312156 	(obj:4)
_var3636_                           0.182837478437263 	(obj:1)
_var3640_                           0.223185514770821 	(obj:2)
_var3641_                          0.0477388430906339 	(obj:1)
_var3643_                          0.0970552545945094 	(obj:1)
_var3646_                           0.106115754717932 	(obj:1)
_var3649_                          0.0495969045212202 	(obj:1)
_var3653_                           0.212845403757085 	(obj:0)
_var3658_                           0.113154691236772 	(obj:1)
_var3661_                           0.283171571541469 	(obj:2)
_var3662_                          0.0403764365576024 	(obj:1)
_var3667_                           0.124361931902766 	(obj:1)
_var3670_                          0.0484809715799475 	(obj:0)
_var3675_                           0.140507214441623 	(obj:0)
_var3677_                           0.142811487084572 	(obj:1)
_var3683_                           0.135046618490665 	(obj:1)
_var3684_                          0.0980619245164489 	(obj:1)
_var3689_                           0.114006748179499 	(obj:1)
_var3690_                          0.0478372645567171 	(obj:2)
_var3695_                          0.0550575004721776 	(obj:1)
_var3696_                           0.383334039153811 	(obj:1)
_var3698_                          0.0217103014179097 	(obj:1)
_var3702_                          0.0705595468137823 	(obj:2)
_var3706_                         0.00213436095773271 	(obj:1)
_var3707_                           0.250457489064376 	(obj:3)
_var3708_                           0.199330921105517 	(obj:1)
_var3709_                           0.139206560768149 	(obj:2)
_var3713_                           0.156730672928744 	(obj:1)
_var3716_                         0.00546059595095744 	(obj:1)
_var3717_                         0.00383478356737765 	(obj:1)
_var3719_                           0.150864783683274 	(obj:3)
_var3720_                           0.077171086327027 	(obj:0)
_var3721_                         0.00855021890960539 	(obj:1)
_var3722_                          0.0825532803332254 	(obj:1)
_var3723_                           0.110636826811576 	(obj:2)
_var3728_                            0.12933300692745 	(obj:1)
_var3730_                          0.0861432908821118 	(obj:2)
_var3731_                           0.139810705852407 	(obj:1)
_var3735_                         0.00582087828031871 	(obj:3)
_var3736_                          0.0586687484122951 	(obj:1)
_var3740_                         0.00710746995072583 	(obj:3)
_var3741_                           0.162172938054281 	(obj:0)
_var3743_                           0.182931976353381 	(obj:2)
_var3748_                           0.111772151506181 	(obj:1)
_var3751_                           0.148167446666308 	(obj:1)
_var3752_                           0.110041326092588 	(obj:2)
_var3753_                           0.254414511615525 	(obj:1)
_var3754_                          0.0101380136634691 	(obj:3)
_var3755_                           0.131596028935534 	(obj:1)
_var3761_                          0.0359052531864237 	(obj:3)
_var3762_                           0.181322504770695 	(obj:2)
_var3763_                          0.0495809529365014 	(obj:0)
_var3765_                           0.157328621942907 	(obj:1)
_var3767_                           0.140934222231049 	(obj:0)
_var3768_                           0.164593605160987 	(obj:1)
_var3769_                          0.0241117964900651 	(obj:1)
_var3770_                          0.0441844269870001 	(obj:3)
_var3771_                          0.0861076964368583 	(obj:3)
_var3774_                           0.029703445287424 	(obj:2)
_var3777_                          0.0811095583339513 	(obj:4)
_var3785_                             0.1100831605517 	(obj:4)
_var3786_                         0.00956462293321474 	(obj:3)
_var3793_                          0.0279441380399459 	(obj:2)
_var3795_                           0.047536155638454 	(obj:2)
_var3798_                           0.028362375910504 	(obj:1)
_var3799_                           0.274654812665931 	(obj:1)
_var3800_                           0.111234794658782 	(obj:1)
_var3802_                          0.0878863766046188 	(obj:1)
_var3803_                           0.107618537130081 	(obj:2)
_var3805_                          0.0994992244491461 	(obj:1)
_var3807_                           0.149391004152451 	(obj:2)
_var3810_                          0.0630527913082405 	(obj:1)
_var3812_                           0.108603988493819 	(obj:1)
_var3814_                          0.0325867020734514 	(obj:2)
_var3815_                          0.0452155547499775 	(obj:1)
_var3816_                          0.0408889400701144 	(obj:2)
_var3817_                          0.0297034452874242 	(obj:3)
_var3819_                         0.000549322105359823 	(obj:2)
_var3820_                          0.0199227320553582 	(obj:3)
_var3821_                          0.0117005784216662 	(obj:2)
_var3822_                          0.0203617239357881 	(obj:3)
_var3825_                          0.0297034452874242 	(obj:2)
_var3829_                          0.0247053071845139 	(obj:3)
_var3831_                         0.00610718442929015 	(obj:3)
